c File: flat50_3_0.col
c
c SOURCE: Joseph Culberson (joe@cs.ualberta.ca)
c DESCRIPTION: Quasi-random coloring problem
c              generated with flatness = 0
c                             probability = 0.139
c                             known coloring = 3
c                             random seed = 1606
c              Creation Date:  Tue Jun  9 12:13:26 1998
c Maximum degree = 8 Minimum degree = 1
c p edge 50 115
c cnf created by edge2cnf
p cnf 150 545
-1 -2 0
-1 -3 0
-2 -3 0
1 2 3 0
-4 -5 0
-4 -6 0
-5 -6 0
4 5 6 0
-7 -8 0
-7 -9 0
-8 -9 0
7 8 9 0
-10 -11 0
-10 -12 0
-11 -12 0
10 11 12 0
-13 -14 0
-13 -15 0
-14 -15 0
13 14 15 0
-16 -17 0
-16 -18 0
-17 -18 0
16 17 18 0
-19 -20 0
-19 -21 0
-20 -21 0
19 20 21 0
-22 -23 0
-22 -24 0
-23 -24 0
22 23 24 0
-25 -26 0
-25 -27 0
-26 -27 0
25 26 27 0
-28 -29 0
-28 -30 0
-29 -30 0
28 29 30 0
-31 -32 0
-31 -33 0
-32 -33 0
31 32 33 0
-34 -35 0
-34 -36 0
-35 -36 0
34 35 36 0
-37 -38 0
-37 -39 0
-38 -39 0
37 38 39 0
-40 -41 0
-40 -42 0
-41 -42 0
40 41 42 0
-43 -44 0
-43 -45 0
-44 -45 0
43 44 45 0
-46 -47 0
-46 -48 0
-47 -48 0
46 47 48 0
-49 -50 0
-49 -51 0
-50 -51 0
49 50 51 0
-52 -53 0
-52 -54 0
-53 -54 0
52 53 54 0
-55 -56 0
-55 -57 0
-56 -57 0
55 56 57 0
-58 -59 0
-58 -60 0
-59 -60 0
58 59 60 0
-61 -62 0
-61 -63 0
-62 -63 0
61 62 63 0
-64 -65 0
-64 -66 0
-65 -66 0
64 65 66 0
-67 -68 0
-67 -69 0
-68 -69 0
67 68 69 0
-70 -71 0
-70 -72 0
-71 -72 0
70 71 72 0
-73 -74 0
-73 -75 0
-74 -75 0
73 74 75 0
-76 -77 0
-76 -78 0
-77 -78 0
76 77 78 0
-79 -80 0
-79 -81 0
-80 -81 0
79 80 81 0
-82 -83 0
-82 -84 0
-83 -84 0
82 83 84 0
-85 -86 0
-85 -87 0
-86 -87 0
85 86 87 0
-88 -89 0
-88 -90 0
-89 -90 0
88 89 90 0
-91 -92 0
-91 -93 0
-92 -93 0
91 92 93 0
-94 -95 0
-94 -96 0
-95 -96 0
94 95 96 0
-97 -98 0
-97 -99 0
-98 -99 0
97 98 99 0
-100 -101 0
-100 -102 0
-101 -102 0
100 101 102 0
-103 -104 0
-103 -105 0
-104 -105 0
103 104 105 0
-106 -107 0
-106 -108 0
-107 -108 0
106 107 108 0
-109 -110 0
-109 -111 0
-110 -111 0
109 110 111 0
-112 -113 0
-112 -114 0
-113 -114 0
112 113 114 0
-115 -116 0
-115 -117 0
-116 -117 0
115 116 117 0
-118 -119 0
-118 -120 0
-119 -120 0
118 119 120 0
-121 -122 0
-121 -123 0
-122 -123 0
121 122 123 0
-124 -125 0
-124 -126 0
-125 -126 0
124 125 126 0
-127 -128 0
-127 -129 0
-128 -129 0
127 128 129 0
-130 -131 0
-130 -132 0
-131 -132 0
130 131 132 0
-133 -134 0
-133 -135 0
-134 -135 0
133 134 135 0
-136 -137 0
-136 -138 0
-137 -138 0
136 137 138 0
-139 -140 0
-139 -141 0
-140 -141 0
139 140 141 0
-142 -143 0
-142 -144 0
-143 -144 0
142 143 144 0
-145 -146 0
-145 -147 0
-146 -147 0
145 146 147 0
-148 -149 0
-148 -150 0
-149 -150 0
148 149 150 0
-64 -1 0
-65 -2 0
-66 -3 0
-82 -1 0
-83 -2 0
-84 -3 0
-88 -1 0
-89 -2 0
-90 -3 0
-103 -1 0
-104 -2 0
-105 -3 0
-133 -1 0
-134 -2 0
-135 -3 0
-139 -1 0
-140 -2 0
-141 -3 0
-148 -1 0
-149 -2 0
-150 -3 0
-52 -4 0
-53 -5 0
-54 -6 0
-73 -4 0
-74 -5 0
-75 -6 0
-76 -4 0
-77 -5 0
-78 -6 0
-79 -4 0
-80 -5 0
-81 -6 0
-109 -4 0
-110 -5 0
-111 -6 0
-130 -4 0
-131 -5 0
-132 -6 0
-133 -4 0
-134 -5 0
-135 -6 0
-148 -4 0
-149 -5 0
-150 -6 0
-91 -7 0
-92 -8 0
-93 -9 0
-118 -7 0
-119 -8 0
-120 -9 0
-121 -7 0
-122 -8 0
-123 -9 0
-61 -10 0
-62 -11 0
-63 -12 0
-73 -10 0
-74 -11 0
-75 -12 0
-82 -10 0
-83 -11 0
-84 -12 0
-100 -10 0
-101 -11 0
-102 -12 0
-145 -10 0
-146 -11 0
-147 -12 0
-58 -13 0
-59 -14 0
-60 -15 0
-109 -13 0
-110 -14 0
-111 -15 0
-76 -16 0
-77 -17 0
-78 -18 0
-88 -16 0
-89 -17 0
-90 -18 0
-106 -16 0
-107 -17 0
-108 -18 0
-118 -16 0
-119 -17 0
-120 -18 0
-139 -16 0
-140 -17 0
-141 -18 0
-148 -16 0
-149 -17 0
-150 -18 0
-79 -19 0
-80 -20 0
-81 -21 0
-112 -19 0
-113 -20 0
-114 -21 0
-67 -22 0
-68 -23 0
-69 -24 0
-100 -22 0
-101 -23 0
-102 -24 0
-121 -22 0
-122 -23 0
-123 -24 0
-133 -22 0
-134 -23 0
-135 -24 0
-85 -25 0
-86 -26 0
-87 -27 0
-94 -25 0
-95 -26 0
-96 -27 0
-112 -25 0
-113 -26 0
-114 -27 0
-61 -28 0
-62 -29 0
-63 -30 0
-79 -28 0
-80 -29 0
-81 -30 0
-97 -28 0
-98 -29 0
-99 -30 0
-100 -28 0
-101 -29 0
-102 -30 0
-121 -28 0
-122 -29 0
-123 -30 0
-130 -28 0
-131 -29 0
-132 -30 0
-145 -31 0
-146 -32 0
-147 -33 0
-55 -34 0
-56 -35 0
-57 -36 0
-61 -34 0
-62 -35 0
-63 -36 0
-85 -34 0
-86 -35 0
-87 -36 0
-142 -34 0
-143 -35 0
-144 -36 0
-145 -34 0
-146 -35 0
-147 -36 0
-148 -34 0
-149 -35 0
-150 -36 0
-52 -37 0
-53 -38 0
-54 -39 0
-88 -37 0
-89 -38 0
-90 -39 0
-103 -37 0
-104 -38 0
-105 -39 0
-121 -37 0
-122 -38 0
-123 -39 0
-124 -37 0
-125 -38 0
-126 -39 0
-67 -40 0
-68 -41 0
-69 -42 0
-73 -40 0
-74 -41 0
-75 -42 0
-82 -40 0
-83 -41 0
-84 -42 0
-94 -40 0
-95 -41 0
-96 -42 0
-58 -43 0
-59 -44 0
-60 -45 0
-103 -43 0
-104 -44 0
-105 -45 0
-106 -43 0
-107 -44 0
-108 -45 0
-145 -43 0
-146 -44 0
-147 -45 0
-55 -46 0
-56 -47 0
-57 -48 0
-100 -46 0
-101 -47 0
-102 -48 0
-106 -46 0
-107 -47 0
-108 -48 0
-115 -46 0
-116 -47 0
-117 -48 0
-130 -46 0
-131 -47 0
-132 -48 0
-136 -46 0
-137 -47 0
-138 -48 0
-52 -49 0
-53 -50 0
-54 -51 0
-61 -49 0
-62 -50 0
-63 -51 0
-82 -49 0
-83 -50 0
-84 -51 0
-94 -49 0
-95 -50 0
-96 -51 0
-115 -49 0
-116 -50 0
-117 -51 0
-142 -52 0
-143 -53 0
-144 -54 0
-106 -58 0
-107 -59 0
-108 -60 0
-112 -58 0
-113 -59 0
-114 -60 0
-133 -58 0
-134 -59 0
-135 -60 0
-115 -61 0
-116 -62 0
-117 -63 0
-136 -61 0
-137 -62 0
-138 -63 0
-112 -64 0
-113 -65 0
-114 -66 0
-136 -64 0
-137 -65 0
-138 -66 0
-148 -64 0
-149 -65 0
-150 -66 0
-115 -67 0
-116 -68 0
-117 -69 0
-142 -67 0
-143 -68 0
-144 -69 0
-145 -67 0
-146 -68 0
-147 -69 0
-106 -70 0
-107 -71 0
-108 -72 0
-106 -73 0
-107 -74 0
-108 -75 0
-118 -73 0
-119 -74 0
-120 -75 0
-133 -76 0
-134 -77 0
-135 -78 0
-139 -76 0
-140 -77 0
-141 -78 0
-103 -79 0
-104 -80 0
-105 -81 0
-115 -79 0
-116 -80 0
-117 -81 0
-145 -79 0
-146 -80 0
-147 -81 0
-124 -82 0
-125 -83 0
-126 -84 0
-142 -82 0
-143 -83 0
-144 -84 0
-148 -82 0
-149 -83 0
-150 -84 0
-112 -85 0
-113 -86 0
-114 -87 0
-130 -85 0
-131 -86 0
-132 -87 0
-133 -85 0
-134 -86 0
-135 -87 0
-148 -85 0
-149 -86 0
-150 -87 0
-103 -88 0
-104 -89 0
-105 -90 0
-112 -88 0
-113 -89 0
-114 -90 0
-115 -88 0
-116 -89 0
-117 -90 0
-136 -88 0
-137 -89 0
-138 -90 0
-124 -97 0
-125 -98 0
-126 -99 0
-127 -97 0
-128 -98 0
-129 -99 0
-130 -97 0
-131 -98 0
-132 -99 0
-133 -97 0
-134 -98 0
-135 -99 0
-106 -100 0
-107 -101 0
-108 -102 0
-124 -100 0
-125 -101 0
-126 -102 0
-145 -100 0
-146 -101 0
-147 -102 0
